(set-logic QF_NRA)
(declare-fun vuscore1dollarsk_0 () Real)
(declare-fun z1uscore0 () Real)
(declare-fun u () Real)
(declare-fun b () Real)
(declare-fun v1uscore0 () Real)
(declare-fun v () Real)
(declare-fun d () Real)
(declare-fun l () Real)
(declare-fun m () Real)
(declare-fun z () Real)
(assert (= (+ (* (- 1) vuscore1dollarsk_0) z1uscore0) 0))
(assert (= (+ (* (- 1) u) b v1uscore0) 0))
(assert (>= vuscore1dollarsk_0 0))
(assert (>= v 0))
(assert (>= d 0))
(assert (not (<= (+ (* (- 1) u) b) 0)))
(assert (>= u 0))
(assert (>= l 0))
(assert (<= (+ (* (- 1) m) z) 0))
(assert (not (<= (+ (* (- 1) u) b v1uscore0) 0)))
(assert (not (<= (+ (* v v) (* (- 1) (* d d)) (* 2 (* u m)) (* (- 2) (* b m)) (* (- 2) (* u z)) (* 2 (* b z))) 0)))
(check-sat)
